TITL IM1706 in P-1 #2
CELL 1.54184 9.29784 12.49301 24.27055 101.3167 90.7196 96.4025
ZERR 2 0.00056 0.00077 0.00165 0.0056 0.0052 0.005
LATT 1
 
SFAC C H Br O S
UNIT 108 178 6 6 6
 
L.S. 4
PLAN  20
REM reset to P-1 #2
BOND
fmap 2
acta
REM <HKL>D:/X-Ray%20Data/New/IM1706/struct/olex2_IM1706/IM1706.hkl</HKL>
 
WGHT    0.074600
FVAR       1.30359
BR27  3    0.549646    0.378315   -0.102551    11.00000    0.02637    0.04541 =
         0.03397    0.00397   -0.00096    0.01175
BR48  3    0.549013    0.044663   -0.102556    11.00000    0.02558    0.04514 =
         0.03461    0.00475   -0.00057    0.00941
BR11  3    1.451116    0.288676    0.102446    11.00000    0.02885    0.04196 =
         0.03454    0.00324   -0.00399    0.01107
S6    5    1.152933    0.359407    0.073460    11.00000    0.02731    0.03217 =
         0.02245    0.00124    0.00395    0.00480
S43   5    0.846646   -0.025307   -0.072990    11.00000    0.01917    0.03325 =
         0.02842    0.00235    0.00069    0.00513
S1    5    0.846628    0.307204   -0.073214    11.00000    0.02031    0.03627 =
         0.02327   -0.00017    0.00443    0.00885
O12   4    1.111619    0.214886   -0.083521    11.00000    0.03045    0.03214 =
         0.02606   -0.00010    0.00277    0.01163
O49   4    0.892183    0.119695    0.083089    11.00000    0.01893    0.05460 =
         0.02394   -0.00895   -0.00003    0.01172
O28   4    0.889245    0.452413    0.083334    11.00000    0.03173    0.04291 =
         0.02811   -0.00069   -0.00018    0.02345
C8    1    1.158268    0.251874   -0.030203    11.00000    0.03027    0.03204 =
         0.02656   -0.00122    0.01570   -0.00916
C46   1    0.838668    0.078993    0.027391    11.00000    0.03666    0.02625 =
         0.01097   -0.01046    0.00227    0.00963
C7    1    1.074056    0.316814    0.005882    11.00000    0.04019    0.01475 =
         0.03256    0.01311    0.00461    0.01471
C4    1    0.712852    0.425329    0.002976    11.00000    0.03351    0.04083 =
         0.02421    0.00365    0.00475    0.00258
AFIX  43
H4    2    0.642514    0.464801    0.021477    11.00000   -1.20000
AFIX   0
C9    1    1.292558    0.240279   -0.003436    11.00000    0.01952    0.02356 =
         0.02911   -0.00264   -0.00037    0.00076
AFIX  43
H9    2    1.363912    0.200998   -0.021277    11.00000   -1.20000
AFIX   0
 
C47   1    0.931459    0.013015   -0.007392    11.00000    0.02213    0.03480 =
         0.02460   -0.00731    0.00534   -0.00151
C2    1    0.932397    0.350681   -0.006667    11.00000    0.00474    0.04201 =
         0.01221   -0.00531   -0.00172    0.00487
C3    1    0.847376    0.410289    0.028747    11.00000    0.00997    0.02979 =
         0.03813    0.01919   -0.00083    0.01472
C45   1    0.713146    0.094651    0.004111    11.00000    0.01647    0.03425 =
         0.02914    0.01052    0.00762    0.01843
AFIX  43
H45   2    0.644624    0.135430    0.023068    11.00000   -1.20000
AFIX   0
 
C30   1    0.872761    0.567861    0.174068    11.00000    0.03196    0.01613 =
         0.03418   -0.00248    0.00310    0.01575
AFIX  23
H30A  2    0.909658    0.508242    0.188052    11.00000   -1.20000
H30B  2    0.954426    0.621322    0.170542    11.00000   -1.20000
AFIX   0
 
C51   1    0.874079    0.231769    0.173943    11.00000    0.02079    0.03324 =
         0.01942    0.00873    0.00529    0.00468
AFIX  23
H51A  2    0.957501    0.283197    0.169782    11.00000   -1.20000
H51B  2    0.907841    0.171268    0.188136    11.00000   -1.20000
AFIX   0
 
C14   1    1.125631    0.101966   -0.173145    11.00000    0.02422    0.05231 =
         0.02737   -0.00122    0.00538    0.00665
AFIX  23
H14A  2    1.090887    0.162346   -0.187141    11.00000   -1.20000
H14B  2    1.042517    0.050202   -0.169057    11.00000   -1.20000
AFIX   0
 
C44   1    0.698811    0.042250   -0.051783    11.00000    0.02763    0.03793 =
         0.03060    0.00804    0.00221    0.01583
C5    1    0.702380    0.374726   -0.051404    11.00000    0.02657    0.02728 =
         0.03394   -0.00090    0.02273   -0.00775
C10   1    1.302776    0.293966    0.051430    11.00000    0.02387    0.03331 =
         0.02406    0.00539   -0.00808    0.00738
C16   1    1.149131   -0.007595   -0.272705    11.00000    0.03599    0.04169 =
         0.02019   -0.00124    0.01458   -0.00183
AFIX  23
H16A  2    1.104641    0.048629   -0.286965    11.00000   -1.20000
H16B  2    1.072667   -0.063252   -0.266798    11.00000   -1.20000
AFIX   0
 
C53   1    0.843833    0.339744    0.271861    11.00000    0.01984    0.05288 =
         0.04005    0.01788    0.00525    0.01254
AFIX  23
H53A  2    0.918715    0.397264    0.266840    11.00000   -1.20000
H53B  2    0.890604    0.283784    0.285431    11.00000   -1.20000
AFIX   0
 
C32   1    0.843870    0.675605    0.272887    11.00000    0.02943    0.02408 =
         0.02478   -0.00392   -0.00831    0.01173
AFIX  23
H32A  2    0.893081    0.621297    0.286886    11.00000   -1.20000
H32B  2    0.917064    0.733692    0.267159    11.00000   -1.20000
AFIX   0
C29   1    0.797700    0.521585    0.114522    11.00000    0.02708    0.03171 =
         0.02779   -0.00015    0.00019    0.01429
AFIX  43
H29   2    0.708725    0.537205    0.102181    11.00000   -1.20000
AFIX   0
C13   1    1.199904    0.144217   -0.117883    11.00000    0.02270    0.01958 =
         0.02891   -0.00238    0.00318    0.00227
AFIX  23
H13A  2    1.216826    0.083503   -0.100059    11.00000   -1.20000
H13B  2    1.292814    0.184549   -0.122564    11.00000   -1.20000
AFIX   0
 
C50   1    0.795471    0.189195    0.117706    11.00000    0.02761    0.03771 =
         0.02988    0.01161    0.00208    0.02109
AFIX  23
H50A  2    0.704254    0.146505    0.122290    11.00000   -1.20000
H50B  2    0.775937    0.249731    0.100178    11.00000   -1.20000
AFIX   0
 
C41   1    0.655401    1.118677    0.722800    11.00000    0.03524    0.05164 =
         0.01744   -0.00050   -0.00323    0.00765
AFIX  23
H41A  2    0.589371    1.165586    0.711166    11.00000   -1.20000
H41B  2    0.597645    1.053875    0.730338    11.00000   -1.20000
AFIX   0
C25   1    1.340103   -0.456419   -0.722075    11.00000    0.01489    0.04302 =
         0.06758    0.00407    0.00975    0.00868
AFIX  23
H25A  2    1.403189   -0.393824   -0.729329    11.00000   -1.20000
H25B  2    1.400637   -0.505046   -0.708671    11.00000   -1.20000
AFIX   0
 
C55   1    0.823294    0.445351    0.373072    11.00000    0.01940    0.02286 =
         0.03798    0.00458   -0.00070   -0.00081
AFIX  23
H55A  2    0.875329    0.392399    0.386995    11.00000   -1.20000
H55B  2    0.893896    0.504214    0.366319    11.00000   -1.20000
AFIX   0
 
C34   1    0.824472    0.779680    0.371505    11.00000    0.05755    0.03658 =
         0.01163   -0.00105    0.02165    0.01739
AFIX  23
H34A  2    0.892553    0.839628    0.364283    11.00000   -1.20000
H34B  2    0.879508    0.727641    0.384794    11.00000   -1.20000
AFIX   0
 
C62   1    0.652282    0.786639    0.722292    11.00000    0.05358    0.02739 =
         0.02828   -0.00628    0.00992    0.00502
AFIX  23
H62A  2    0.594160    0.722961    0.730908    11.00000   -1.20000
H62B  2    0.587571    0.833469    0.709742    11.00000   -1.20000
AFIX   0
 
C15   1    1.229044    0.043994   -0.216279    11.00000    0.02086    0.03781 =
         0.02951    0.00759   -0.00152    0.01197
AFIX  23
H15A  2    1.308509    0.097133   -0.222411    11.00000   -1.20000
H15B  2    1.269364   -0.012840   -0.201021    11.00000   -1.20000
AFIX   0
C31   1    0.770254    0.621633    0.216131    11.00000    0.05473    0.01446 =
         0.03480    0.00404    0.01762    0.01891
AFIX  23
H31A  2    0.692868    0.566512    0.221865    11.00000   -1.20000
H31B  2    0.727008    0.676853    0.200556    11.00000   -1.20000
AFIX   0
C18   1    1.178944   -0.113359   -0.372911    11.00000    0.02420    0.06411 =
         0.03203    0.00070   -0.00501    0.00676
AFIX  23
H18A  2    1.108347   -0.173301   -0.367438    11.00000   -1.20000
H18B  2    1.126844   -0.059562   -0.386050    11.00000   -1.20000
AFIX   0
C23   1    1.322068   -0.360391   -0.621297    11.00000    0.01769    0.03714 =
         0.04926   -0.00312   -0.00500   -0.00150
AFIX  23
H23A  2    1.388733   -0.299399   -0.628241    11.00000   -1.20000
H23B  2    1.378811   -0.412421   -0.608887    11.00000   -1.20000
AFIX   0
 
C52   1    0.769541    0.289546    0.215538    11.00000    0.02104    0.05411 =
         0.02056   -0.01056    0.00315   -0.00387
AFIX  23
H52A  2    0.731393    0.346707    0.199836    11.00000   -1.20000
H52B  2    0.688751    0.236679    0.220742    11.00000   -1.20000
AFIX   0
 
C39   1    0.677799    1.018523    0.621561    11.00000    0.03713    0.04177 =
         0.01400    0.00304    0.00651    0.01629
AFIX  23
H39A  2    0.609266    1.062204    0.608688    11.00000   -1.20000
H39B  2    0.623332    0.953148    0.629969    11.00000   -1.20000
AFIX   0
 
C60   1    0.676540    0.689982    0.619938    11.00000    0.03872    0.04921 =
         0.02995   -0.00323    0.01264   -0.00389
AFIX  23
H60A  2    0.612377    0.627761    0.626997    11.00000   -1.20000
H60B  2    0.617185    0.739677    0.606823    11.00000   -1.20000
AFIX   0
 
C40   1    0.753456    1.082909    0.673965    11.00000    0.04638    0.05112 =
         0.02229    0.00179    0.02148    0.02131
AFIX  23
H40A  2    0.807664    1.148105    0.665251    11.00000   -1.20000
H40B  2    0.822715    1.039162    0.686302    11.00000   -1.20000
AFIX   0
C36   1    0.799380    0.881431    0.472944    11.00000    0.03103    0.03585 =
         0.04904    0.00640    0.00245   -0.00644
AFIX  23
H36A  2    0.866952    0.942129    0.466243    11.00000   -1.20000
H36B  2    0.855246    0.829710    0.486099    11.00000   -1.20000
AFIX   0
C20   1    1.200289   -0.215895   -0.471719    11.00000    0.04417    0.03555 =
         0.02120    0.00249    0.01206    0.00712
AFIX  23
H20A  2    1.140555   -0.166113   -0.484548    11.00000   -1.20000
H20B  2    1.136382   -0.277735   -0.464081    11.00000   -1.20000
AFIX   0
C21   1    1.300917   -0.258171   -0.519238    11.00000    0.02835    0.02092 =
         0.04881    0.00449    0.01789    0.00535
AFIX  23
H21A  2    1.365027   -0.196316   -0.526744    11.00000   -1.20000
H21B  2    1.360474   -0.308047   -0.506394    11.00000   -1.20000
AFIX   0
 
C57   1    0.802449    0.550489    0.474213    11.00000    0.01855    0.06092 =
         0.01984   -0.00599   -0.00584    0.01359
AFIX  23
H57A  2    0.860619    0.499579    0.486883    11.00000   -1.20000
H57B  2    0.867420    0.612705    0.467639    11.00000   -1.20000
AFIX   0
 
C37   1    0.700010    0.925065    0.519043    11.00000    0.03569    0.05963 =
         0.00975   -0.00694   -0.00788    0.01787
AFIX  23
H37A  2    0.633906    0.864226    0.526505    11.00000   -1.20000
H37B  2    0.642622    0.975723    0.505730    11.00000   -1.20000
AFIX   0
 
C58   1    0.700731    0.589789    0.519503    11.00000    0.04460    0.03177 =
         0.03559   -0.00132    0.00179    0.00230
AFIX  23
H58A  2    0.637709    0.526963    0.526527    11.00000   -1.20000
H58B  2    0.640355    0.638419    0.506014    11.00000   -1.20000
AFIX   0
 
C19   1    1.280064   -0.157124   -0.417718    11.00000    0.03637    0.04886 =
         0.03347   -0.00445    0.01332    0.00015
AFIX  23
H19A  2    1.336860   -0.207534   -0.403885    11.00000   -1.20000
H19B  2    1.346393   -0.096585   -0.425376    11.00000   -1.20000
AFIX   0
 
C56   1    0.720810    0.492779    0.418216    11.00000    0.03012    0.03156 =
         0.02779    0.00729    0.01007    0.01677
AFIX  23
H56A  2    0.650886    0.433853    0.425362    11.00000   -1.20000
H56B  2    0.668027    0.545251    0.404221    11.00000   -1.20000
AFIX   0
 
C35   1    0.722861    0.825199    0.417844    11.00000    0.03110    0.03237 =
         0.02866   -0.00589   -0.00505    0.00431
AFIX  23
H35A  2    0.668171    0.877196    0.404345    11.00000   -1.20000
H35B  2    0.654324    0.765083    0.424578    11.00000   -1.20000
AFIX   0
C17   1    1.253504   -0.060872   -0.317208    11.00000    0.03989    0.04542 =
         0.02212   -0.01163    0.00428    0.00878
AFIX  23
H17A  2    1.329446   -0.004795   -0.323068    11.00000   -1.20000
H17B  2    1.298861   -0.116156   -0.302471    11.00000   -1.20000
AFIX   0
C33   1    0.744282    0.723647    0.317356    11.00000    0.02050    0.01870 =
         0.04367    0.00440    0.00339    0.01187
AFIX  23
H33A  2    0.673678    0.665405    0.324791    11.00000   -1.20000
H33B  2    0.692201    0.776385    0.303269    11.00000   -1.20000
AFIX   0
C38   1    0.780024    0.984133    0.574274    11.00000    0.02254    0.06073 =
         0.01941   -0.00642    0.00805    0.00585
AFIX  23
H38A  2    0.843839    0.935822    0.586029    11.00000   -1.20000
H38B  2    0.839574    1.048945    0.567681    11.00000   -1.20000
AFIX   0
C22   1    1.221315   -0.317154   -0.573786    11.00000    0.04810    0.01732 =
         0.03432    0.00622    0.00112   -0.00007
AFIX  23
H22A  2    1.162374   -0.267076   -0.586787    11.00000   -1.20000
H22B  2    1.156604   -0.378636   -0.566211    11.00000   -1.20000
AFIX   0
 
C54   1    0.742197    0.387954    0.316100    11.00000    0.02551    0.05000 =
         0.01934    0.00671   -0.00527    0.00323
AFIX  23
H54A  2    0.670643    0.329737    0.322907    11.00000   -1.20000
H54B  2    0.691349    0.441152    0.301855    11.00000   -1.20000
AFIX   0
C59   1    0.775924    0.649853    0.574470    11.00000    0.02925    0.04530 =
         0.02709   -0.00039   -0.00295    0.01934
AFIX  23
H59A  2    0.836077    0.601001    0.587889    11.00000   -1.20000
H59B  2    0.839386    0.712310    0.567273    11.00000   -1.20000
AFIX   0
 
C42   1    0.734375    1.179768    0.777213    11.00000    0.05298    0.06966 =
         0.04522   -0.00064    0.02318   -0.01642
AFIX 137
H42A  2    0.778799    1.250105    0.772079    11.00000   -1.50000
H42B  2    0.807568    1.137729    0.787099    11.00000   -1.50000
H42C  2    0.666524    1.189968    0.806751    11.00000   -1.50000
AFIX   0
 
C61   1    0.755351    0.750046    0.676013    11.00000    0.02796    0.04960 =
         0.03318    0.00720   -0.00685    0.00416
AFIX  23
H61A  2    0.817252    0.701379    0.688607    11.00000   -1.20000
H61B  2    0.816773    0.813971    0.669380    11.00000   -1.20000
AFIX   0
 
C24   1    1.240144   -0.416326   -0.676314    11.00000    0.02955    0.03534 =
         0.03948   -0.00568   -0.00531   -0.00336
AFIX  23
H24A  2    1.174483   -0.478094   -0.669639    11.00000   -1.20000
H24B  2    1.182561   -0.364709   -0.688652    11.00000   -1.20000
AFIX   0
 
C63   1    0.741425    0.851319    0.776408    11.00000    0.05231    0.05223 =
         0.02478   -0.01406   -0.01713    0.02731
AFIX 137
H63A  2    0.794100    0.916697    0.768321    11.00000   -1.50000
H63B  2    0.808152    0.805731    0.787777    11.00000   -1.50000
H63C  2    0.676455    0.871024    0.806169    11.00000   -1.50000
AFIX   0
 
C26   1    1.266461   -0.515457   -0.775813    11.00000    0.06708    0.04184 =
         0.03150   -0.00334    0.01292    0.00097
AFIX 137
H26A  2    1.337693   -0.536682   -0.802858    11.00000   -1.50000
H26B  2    1.206609   -0.468058   -0.789725    11.00000   -1.50000
H26C  2    1.207433   -0.579832   -0.769625    11.00000   -1.50000
AFIX   0
HKLF 4
 
REM  IM1706 in P-1 #2
REM R1 =  0.0518 for    2607 Fo > 4sig(Fo)  and  0.1433 for all    8408 data
REM    571 parameters refined using      0 restraints
 
END  
     
WGHT      0.0746      0.0000 

REM Highest difference peak  1.153,  deepest hole -0.669,  1-sigma level  0.089
Q1    1   0.5497  0.0209 -0.1425  11.00000  0.05    1.15
Q2    1   0.5515  0.3595 -0.1428  11.00000  0.05    1.13
Q3    1   1.4517  0.3126  0.1428  11.00000  0.05    1.13
Q4    1   0.5479  0.3975 -0.0633  11.00000  0.05    1.06
Q5    1   0.5456  0.0633 -0.0633  11.00000  0.05    1.05
Q6    1   1.4498  0.2689  0.0630  11.00000  0.05    1.03
Q7    1   1.1561  0.3825  0.1121  11.00000  0.05    0.65
Q8    1   0.8425  0.2838 -0.1128  11.00000  0.05    0.65
Q9    1   0.5496  0.2121 -0.1028  11.00000  0.05    0.61
Q10   1   0.8450 -0.0491 -0.1115  11.00000  0.05    0.61
Q11   1   0.5497  0.5431 -0.1025  11.00000  0.05    0.61
Q12   1   1.4493  0.1229  0.1027  11.00000  0.05    0.60
Q13   1   0.5371  0.4833 -0.0998  11.00000  0.05    0.55
Q14   1   1.4620  0.1835  0.0990  11.00000  0.05    0.54
Q15   1   0.5365  0.1470 -0.1008  11.00000  0.05    0.54
Q16   1   0.8447 -0.0032 -0.0337  11.00000  0.05    0.54
Q17   1   1.1562  0.3372  0.0342  11.00000  0.05    0.52
Q18   1   0.8458  0.3312 -0.0330  11.00000  0.05    0.52
Q19   1   1.4454  0.4003  0.1090  11.00000  0.05    0.51
Q20   1   0.5559 -0.0654 -0.1091  11.00000  0.05    0.50

REM The information below was added by Olex2.
REM
REM R1 = 0.0518 for 2607 Fo > 4sig(Fo) and n/a for all 10991 data
REM n/a parameters refined using n/a restraints
REM Highest difference peak n/a, deepest hole n/a
REM Mean Shift n/a, Max Shift n/a.

REM +++ Tabular Listing of Refinement Information +++
REM R1_all = n/a
REM R1_gt = 0.0518
REM wR_ref = 0.1959
REM GOOF = 0.921
REM Shift_max = n/a
REM Shift_mean = n/a
REM Reflections_all = 10991
REM Reflections_gt = 2607
REM Parameters = n/a
REM Hole = n/a
REM Peak = n/a
REM Flack = n/a

