
data_IM1704

_audit_creation_method            'SHELXL-2014/7'
_shelx_SHELXL_version_number      '2014/7'
_chemical_name_systematic         ?
_chemical_name_common             ?
_chemical_melting_point           ?
_chemical_formula_moiety
 'C28 H50 O8 S2 Sn2'
_chemical_formula_sum
 'C28 H50 O8 S2 Sn2'
_chemical_formula_weight          816.18

loop_
 _atom_type_symbol
 _atom_type_description
 _atom_type_scat_dispersion_real
 _atom_type_scat_dispersion_imag
 _atom_type_scat_source
 'C'  'C'   0.0181   0.0091
 'International Tables Vol C Tables 4.2.6.8 and 6.1.1.4'
 'H'  'H'   0.0000   0.0000
 'International Tables Vol C Tables 4.2.6.8 and 6.1.1.4'
 'O'  'O'   0.0492   0.0322
 'International Tables Vol C Tables 4.2.6.8 and 6.1.1.4'
 'S'  'S'   0.3331   0.5567
 'International Tables Vol C Tables 4.2.6.8 and 6.1.1.4'
 'Sn'  'Sn'   0.0259   5.4591
 'International Tables Vol C Tables 4.2.6.8 and 6.1.1.4'

_space_group_crystal_system       monoclinic
_space_group_IT_number            14
_space_group_name_H-M_alt         'P 21/n'
_space_group_name_Hall            '-P 2yn'

_shelx_space_group_comment
;
The symmetry employed for this shelxl refinement is uniquely defined
by the following loop, which should always be used as a source of
symmetry information in preference to the above space-group names.
They are only intended as comments.
;

loop_
 _space_group_symop_operation_xyz
 'x, y, z'
 '-x+1/2, y+1/2, -z+1/2'
 '-x, -y, -z'
 'x-1/2, -y-1/2, z-1/2'

_cell_length_a                    7.00588(12)
_cell_length_b                    14.0253(3)
_cell_length_c                    18.0156(3)
_cell_angle_alpha                 90
_cell_angle_beta                  97.7113(16)
_cell_angle_gamma                 90
_cell_volume                      1754.20(6)
_cell_formula_units_Z             2
_cell_measurement_temperature     173(2)
_cell_measurement_reflns_used     3162
_cell_measurement_theta_min       3.9940
_cell_measurement_theta_max       73.5080

_exptl_crystal_description        'blocky needles'
_exptl_crystal_colour             Colourless
_exptl_crystal_density_meas       ?
_exptl_crystal_density_method     ?
_exptl_crystal_density_diffrn     1.545
_exptl_crystal_F_000              828
_exptl_transmission_factor_min    ?
_exptl_transmission_factor_max    ?
_exptl_crystal_size_max           0.41
_exptl_crystal_size_mid           0.26
_exptl_crystal_size_min           0.16
_exptl_absorpt_coefficient_mu     12.783
_shelx_estimated_absorpt_T_min    ?
_shelx_estimated_absorpt_T_max    ?
_exptl_absorpt_correction_type    analytical
_exptl_absorpt_correction_T_min   0.057
_exptl_absorpt_correction_T_max   0.283
_exptl_absorpt_process_details
;
CrysAlisPro 1.171.38.43 (Rigaku Oxford Diffraction, 2015)
Analytical numeric absorption correction using a multifaceted crystal
model based on expressions derived by R.C. Clark & J.S. Reid.
(Clark, R. C. & Reid, J. S. (1995). Acta Cryst. A51, 887-897)
Empirical absorption correction using spherical harmonics,
implemented in SCALE3 ABSPACK scaling algorithm.
;
_exptl_absorpt_special_details    ?
_diffrn_ambient_temperature       173(2)
_diffrn_radiation_wavelength      1.54184
_diffrn_radiation_type            CuK\a
_diffrn_source                    'Enhance Ultra (Cu) X-ray Source'
_diffrn_measurement_device_type   'Agilent Xcalibur PX Ultra A'
_diffrn_measurement_method        'omega scans'
_diffrn_detector_area_resol_mean  10.4115
_diffrn_reflns_number             5794
_diffrn_reflns_av_unetI/netI      0.0434
_diffrn_reflns_av_R_equivalents   0.0336
_diffrn_reflns_limit_h_min        -8
_diffrn_reflns_limit_h_max        8
_diffrn_reflns_limit_k_min        -16
_diffrn_reflns_limit_k_max        10
_diffrn_reflns_limit_l_min        -22
_diffrn_reflns_limit_l_max        18
_diffrn_reflns_theta_min          4.008
_diffrn_reflns_theta_max          73.678
_diffrn_reflns_theta_full         67.684
_diffrn_measured_fraction_theta_max   0.952
_diffrn_measured_fraction_theta_full  0.982
_diffrn_reflns_Laue_measured_fraction_max    0.952
_diffrn_reflns_Laue_measured_fraction_full   0.982
_diffrn_reflns_point_group_measured_fraction_max   0.952
_diffrn_reflns_point_group_measured_fraction_full  0.982
_reflns_number_total              3378
_reflns_number_gt                 2892
_reflns_threshold_expression      'I > 2\s(I)'
_reflns_Friedel_coverage          0.000
_reflns_Friedel_fraction_max      .
_reflns_Friedel_fraction_full     .

_reflns_special_details
;
 Reflections were merged by SHELXL according to the crystal
 class for the calculation of statistics and refinement.

 _reflns_Friedel_fraction is defined as the number of unique
 Friedel pairs measured divided by the number that would be
 possible theoretically, ignoring centric projections and
 systematic absences.
;

_computing_data_collection        'CrysAlisPro, Rigaku OD'
_computing_cell_refinement        'CrysAlisPro, Rigaku OD'
_computing_data_reduction         'CrysAlisPro, Rigaku OD'
_computing_structure_solution     'SHELXS-2014 (Sheldrick, 2014)'
_computing_structure_refinement 'SHELXL-2014/7 (Sheldrick, 2014)'
_computing_molecular_graphics     'Bruker SHELXTL'
_computing_publication_material   'CIFTAB-2014 (Sheldrick, 2014)'
_refine_special_details           ?
_refine_ls_structure_factor_coef  Fsqd
_refine_ls_matrix_type            full
_refine_ls_weighting_scheme       calc
_refine_ls_weighting_details
'w=1/[\s^2^(Fo^2^)+(0.0439P)^2^] where P=(Fo^2^+2Fc^2^)/3'
_atom_sites_solution_primary      ?
_atom_sites_solution_secondary    ?
_atom_sites_solution_hydrogens    geom
_refine_ls_hydrogen_treatment     constr
_refine_ls_extinction_method      'SHELXL-2014/7 (Sheldrick 2014'
_refine_ls_extinction_coef        0.00643(19)
_refine_ls_extinction_expression
 'Fc^*^=kFc[1+0.001xFc^2^\l^3^/sin(2\q)]^-1/4^'
_refine_ls_number_reflns          3378
_refine_ls_number_parameters      186
_refine_ls_number_restraints      0
_refine_ls_R_factor_all           0.0394
_refine_ls_R_factor_gt            0.0323
_refine_ls_wR_factor_ref          0.0858
_refine_ls_wR_factor_gt           0.0789
_refine_ls_goodness_of_fit_ref    1.063
_refine_ls_restrained_S_all       1.063
_refine_ls_shift/su_max           0.001
_refine_ls_shift/su_mean          0.000

loop_
 _atom_site_label
 _atom_site_type_symbol
 _atom_site_fract_x
 _atom_site_fract_y
 _atom_site_fract_z
 _atom_site_U_iso_or_equiv
 _atom_site_adp_type
 _atom_site_occupancy
 _atom_site_site_symmetry_order
 _atom_site_calc_flag
 _atom_site_refinement_flags_posn
 _atom_site_refinement_flags_adp
 _atom_site_refinement_flags_occupancy
 _atom_site_disorder_assembly
 _atom_site_disorder_group
S1 S 0.53023(12) 0.65671(6) 0.51253(5) 0.02060(19) Uani 1 1 d . . . . .
C2 C 0.7189(5) 0.6950(3) 0.4680(2) 0.0234(7) Uani 1 1 d . . . . .
C3 C 0.8065(5) 0.6191(3) 0.43875(19) 0.0212(7) Uani 1 1 d . . . . .
H3A H 0.9155 0.6251 0.4129 0.025 Uiso 1 1 calc R U . . .
C4 C 0.7186(5) 0.5310(2) 0.45091(18) 0.0192(7) Uani 1 1 d . . . . .
C5 C 0.5621(4) 0.5376(2) 0.49025(18) 0.0168(6) Uani 1 1 d . . . . .
Sn6 Sn 0.79127(3) 0.84290(2) 0.46599(2) 0.02387(12) Uani 1 1 d . . . . .
C7 C 0.6691(7) 0.9047(3) 0.5574(2) 0.0421(10) Uani 1 1 d . . . . .
H7A H 0.5427 0.8761 0.5604 0.063 Uiso 1 1 calc R U . . .
H7B H 0.6542 0.9736 0.5495 0.063 Uiso 1 1 calc R U . . .
H7C H 0.7542 0.8928 0.6042 0.063 Uiso 1 1 calc R U . . .
C8 C 0.6723(7) 0.9078(3) 0.3622(2) 0.0439(11) Uani 1 1 d . . . . .
H8A H 0.7224 0.8756 0.3206 0.066 Uiso 1 1 calc R U . . .
H8B H 0.7085 0.9754 0.3627 0.066 Uiso 1 1 calc R U . . .
H8C H 0.5316 0.9023 0.3560 0.066 Uiso 1 1 calc R U . . .
C9 C 1.0979(7) 0.8532(4) 0.4807(3) 0.0478(12) Uani 1 1 d . . . . .
H9A H 1.1538 0.7927 0.5001 0.072 Uiso 1 1 calc R U . . .
H9B H 1.1390 0.9044 0.5163 0.072 Uiso 1 1 calc R U . . .
H9C H 1.1417 0.8674 0.4325 0.072 Uiso 1 1 calc R U . . .
O10 O 0.7725(4) 0.44289(19) 0.42883(15) 0.0260(6) Uani 1 1 d . . . . .
C11 C 0.9167(5) 0.4412(3) 0.3791(2) 0.0248(7) Uani 1 1 d . . . . .
H11A H 1.0410 0.4649 0.4052 0.030 Uiso 1 1 calc R U . . .
H11B H 0.8773 0.4825 0.3351 0.030 Uiso 1 1 calc R U . . .
C12 C 0.9375(5) 0.3406(3) 0.3545(2) 0.0289(8) Uani 1 1 d . . . . .
H12A H 1.0411 0.3365 0.3223 0.035 Uiso 1 1 calc R U . . .
H12B H 0.9732 0.2994 0.3988 0.035 Uiso 1 1 calc R U . . .
O13 O 0.7624(4) 0.3088(2) 0.31433(16) 0.0310(6) Uani 1 1 d . . . . .
C14 C 0.7686(6) 0.2136(3) 0.2896(3) 0.0367(10) Uani 1 1 d . . . . .
H14A H 0.8417 0.1740 0.3291 0.044 Uiso 1 1 calc R U . . .
H14B H 0.8347 0.2105 0.2444 0.044 Uiso 1 1 calc R U . . .
C15 C 0.5675(7) 0.1762(3) 0.2718(2) 0.0392(10) Uani 1 1 d . . . . .
H15A H 0.5706 0.1060 0.2664 0.047 Uiso 1 1 calc R U . . .
H15B H 0.4930 0.1916 0.3132 0.047 Uiso 1 1 calc R U . . .
O16 O 0.4775(4) 0.2178(2) 0.20431(15) 0.0337(6) Uani 1 1 d . . . . .
C17 C 0.2724(6) 0.2143(3) 0.1962(2) 0.0368(9) Uani 1 1 d . . . . .
H17A H 0.2211 0.2581 0.1552 0.044 Uiso 1 1 calc R U . . .
H17B H 0.2300 0.2387 0.2429 0.044 Uiso 1 1 calc R U . . .
C18 C 0.1846(6) 0.1184(3) 0.1800(2) 0.0345(9) Uani 1 1 d . . . . .
H18A H 0.0459 0.1256 0.1613 0.041 Uiso 1 1 calc R U . . .
H18B H 0.2473 0.0867 0.1406 0.041 Uiso 1 1 calc R U . . .
O19 O 0.2069(5) 0.0615(3) 0.24553(19) 0.0566(10) Uani 1 1 d . . . . .
C20 C 0.1050(8) -0.0251(4) 0.2357(3) 0.0590(14) Uani 1 1 d . . . . .
H20A H 0.1450 -0.0598 0.1932 0.089 Uiso 1 1 calc R U . . .
H20B H -0.0335 -0.0120 0.2260 0.089 Uiso 1 1 calc R U . . .
H20C H 0.1326 -0.0638 0.2812 0.089 Uiso 1 1 calc R U . . .

loop_
 _atom_site_aniso_label
 _atom_site_aniso_U_11
 _atom_site_aniso_U_22
 _atom_site_aniso_U_33
 _atom_site_aniso_U_23
 _atom_site_aniso_U_13
 _atom_site_aniso_U_12
S1 0.0254(4) 0.0133(4) 0.0247(4) -0.0010(3) 0.0089(3) -0.0030(3)
C2 0.0241(17) 0.0209(18) 0.0255(17) 0.0027(14) 0.0047(13) -0.0057(14)
C3 0.0206(16) 0.0219(18) 0.0228(16) -0.0004(14) 0.0088(12) -0.0042(13)
C4 0.0225(16) 0.0149(16) 0.0203(15) 0.0028(13) 0.0036(12) -0.0026(13)
C5 0.0186(15) 0.0140(15) 0.0179(14) -0.0014(12) 0.0026(11) -0.0016(13)
Sn6 0.03337(17) 0.01426(15) 0.02521(16) 0.00051(8) 0.00847(10) -0.00626(9)
C7 0.063(3) 0.032(2) 0.036(2) -0.0057(19) 0.024(2) -0.007(2)
C8 0.066(3) 0.036(2) 0.031(2) 0.0077(19) 0.011(2) 0.000(2)
C9 0.039(3) 0.044(3) 0.061(3) 0.005(2) 0.011(2) -0.014(2)
O10 0.0282(13) 0.0196(13) 0.0336(14) 0.0005(11) 0.0169(10) -0.0025(10)
C11 0.0229(17) 0.028(2) 0.0254(18) -0.0046(15) 0.0111(13) -0.0022(14)
C12 0.0246(18) 0.030(2) 0.033(2) -0.0073(16) 0.0050(15) -0.0010(15)
O13 0.0264(14) 0.0274(15) 0.0374(15) -0.0090(12) -0.0022(11) 0.0014(11)
C14 0.038(2) 0.027(2) 0.043(2) -0.0076(18) -0.0033(18) 0.0016(17)
C15 0.045(3) 0.034(2) 0.036(2) 0.0008(19) -0.0032(18) -0.0046(19)
O16 0.0337(14) 0.0435(17) 0.0243(13) -0.0036(13) 0.0054(10) -0.0059(13)
C17 0.035(2) 0.041(3) 0.035(2) -0.0018(19) 0.0077(17) 0.0075(19)
C18 0.028(2) 0.045(3) 0.030(2) -0.0055(18) 0.0009(15) 0.0008(18)
O19 0.063(2) 0.056(2) 0.0439(19) 0.0126(17) -0.0174(16) -0.0288(18)
C20 0.059(3) 0.046(3) 0.069(4) 0.007(3) -0.003(3) -0.018(3)

_geom_special_details
;
 All esds (except the esd in the dihedral angle between two l.s. planes)
 are estimated using the full covariance matrix.  The cell esds are taken
 into account individually in the estimation of esds in distances, angles
 and torsion angles; correlations between esds in cell parameters are only
 used when they are defined by crystal symmetry.  An approximate (isotropic)
 treatment of cell esds is used for estimating esds involving l.s. planes.
;

loop_
 _geom_bond_atom_site_label_1
 _geom_bond_atom_site_label_2
 _geom_bond_distance
 _geom_bond_site_symmetry_2
 _geom_bond_publ_flag
S1 C2 1.722(4) . ?
S1 C5 1.739(3) . ?
C2 C3 1.369(5) . ?
C2 Sn6 2.138(4) . ?
C3 C4 1.410(5) . ?
C4 O10 1.367(4) . ?
C4 C5 1.386(5) . ?
C5 C5 1.442(6) 3_666 ?
Sn6 C9 2.134(5) . ?
Sn6 C7 2.139(4) . ?
Sn6 C8 2.145(4) . ?
O10 C11 1.438(4) . ?
C11 C12 1.492(5) . ?
C12 O13 1.410(4) . ?
O13 C14 1.410(5) . ?
C14 C15 1.497(6) . ?
C15 O16 1.417(5) . ?
O16 C17 1.426(5) . ?
C17 C18 1.492(6) . ?
C18 O19 1.416(5) . ?
O19 C20 1.408(6) . ?

loop_
 _geom_angle_atom_site_label_1
 _geom_angle_atom_site_label_2
 _geom_angle_atom_site_label_3
 _geom_angle
 _geom_angle_site_symmetry_1
 _geom_angle_site_symmetry_3
 _geom_angle_publ_flag
C2 S1 C5 93.50(17) . . ?
C3 C2 S1 110.4(3) . . ?
C3 C2 Sn6 129.0(3) . . ?
S1 C2 Sn6 120.6(2) . . ?
C2 C3 C4 113.2(3) . . ?
O10 C4 C5 118.5(3) . . ?
O10 C4 C3 127.1(3) . . ?
C5 C4 C3 114.4(3) . . ?
C4 C5 C5 128.3(4) . 3_666 ?
C4 C5 S1 108.5(2) . . ?
C5 C5 S1 123.1(3) 3_666 . ?
C9 Sn6 C2 107.51(17) . . ?
C9 Sn6 C7 112.1(2) . . ?
C2 Sn6 C7 105.09(16) . . ?
C9 Sn6 C8 110.3(2) . . ?
C2 Sn6 C8 111.21(16) . . ?
C7 Sn6 C8 110.48(19) . . ?
C4 O10 C11 116.2(3) . . ?
O10 C11 C12 107.8(3) . . ?
O13 C12 C11 109.8(3) . . ?
C14 O13 C12 113.6(3) . . ?
O13 C14 C15 109.4(4) . . ?
O16 C15 C14 109.7(4) . . ?
C15 O16 C17 113.6(3) . . ?
O16 C17 C18 115.7(4) . . ?
O19 C18 C17 110.4(3) . . ?
C20 O19 C18 112.6(4) . . ?

_refine_diff_density_max    0.866
_refine_diff_density_min   -1.123
_refine_diff_density_rms    0.111



#===END
