TITL IM1704 in P21/n #14
CELL 1.54184 7.00588 14.02534 18.0156 90 97.7113 90
ZERR 2 0.00012 0.00026 0.00033 0 0.0016 0
LATT 1
SYMM 0.5-X,0.5+Y,0.5-Z
 
SFAC C H O S Sn
UNIT 56 100 16 4 4
 
L.S. 4
PLAN  20
REM reset to P21/n #14
BOND
fmap 2
acta
REM <HKL>D:/X-Ray%20Data/New/IM1704/struct/olex2_IM1704/IM1704.hkl</HKL>
 
WGHT    0.086500
FVAR       5.54090
SN1   5    0.791243    0.842896    0.965994    11.00000    0.02471    0.00079 =
         0.01559    0.00047    0.00696   -0.00615
S2    4    0.530267    0.656709    1.012545    11.00000    0.01710   -0.00003 =
         0.01571   -0.00119    0.00745   -0.00300
O13   3    0.477241    0.217623    0.704370    11.00000    0.02621    0.02930 =
         0.01510   -0.00497    0.00440   -0.00565
O10   3    0.762327    0.308644    0.814273    11.00000    0.01891    0.01135 =
         0.02922   -0.00958   -0.00464    0.00181
C5    1    0.806837    0.618745    0.938740    11.00000    0.01328    0.00354 =
         0.01455    0.00009    0.00786   -0.00283
AFIX  43
H5    2    0.913748    0.624522    0.913542    11.00000   -1.20000
AFIX   0
C6    1    0.718787    0.694985    0.967961    11.00000    0.01573    0.00733 =
         0.01722   -0.00047    0.00340   -0.00682
C9    1    0.937625    0.340569    0.854548    11.00000    0.01586    0.01536 =
         0.02412   -0.00732    0.00405   -0.00158
AFIX  23
H9A   2    1.039330    0.336502    0.823074    11.00000   -1.20000
H9B   2    0.972506    0.300256    0.898002    11.00000   -1.20000
AFIX   0
C3    1    0.561898    0.537922    0.990185    11.00000    0.01089    0.00006 =
         0.00884   -0.00071    0.00121   -0.00267
O16   3    0.206840    0.061298    0.745584    11.00000    0.05597    0.04073 =
         0.03384    0.01241   -0.01861   -0.02905
C8    1    0.916681    0.441362    0.879042    11.00000    0.01465    0.01399 =
         0.01750   -0.00435    0.00905   -0.00267
AFIX  23
H8A   2    1.038154    0.464693    0.904818    11.00000   -1.20000
H8B   2    0.878107    0.481870    0.835999    11.00000   -1.20000
AFIX   0
C15   1    0.184897    0.118423    0.679788    11.00000    0.01939    0.02930 =
         0.02030   -0.00610   -0.00057    0.00154
AFIX  23
H15A  2    0.049092    0.125398    0.661271    11.00000   -1.20000
H15B  2    0.246738    0.087333    0.641238    11.00000   -1.20000
AFIX   0
C12   1    0.567112    0.176596    0.771758    11.00000    0.03818    0.01859 =
         0.02830   -0.00053   -0.00473   -0.00457
AFIX  23
H12A  2    0.568982    0.107749    0.766783    11.00000   -1.20000
H12B  2    0.494520    0.192365    0.812307    11.00000   -1.20000
AFIX   0
C18   1    0.668327    0.904777    1.057264    11.00000    0.05548    0.01765 =
         0.02718   -0.00640    0.02203   -0.00598
AFIX 137
H18A  2    0.545524    0.875905    1.060591    11.00000   -1.50000
H18B  2    0.651735    0.972073    1.049057    11.00000   -1.50000
H18C  2    0.752574    0.894118    1.103092    11.00000   -1.50000
AFIX   0
C14   1    0.272415    0.214396    0.696042    11.00000    0.02731    0.02357 =
         0.02552   -0.00231    0.00635    0.00632
AFIX  23
H14A  2    0.222619    0.257265    0.655802    11.00000   -1.20000
H14B  2    0.230470    0.238331    0.741712    11.00000   -1.20000
AFIX   0
C11   1    0.769112    0.213126    0.789590    11.00000    0.02823    0.00992 =
         0.03496   -0.00801   -0.00578    0.00137
AFIX  23
H11A  2    0.840208    0.174264    0.828414    11.00000   -1.20000
H11B  2    0.833990    0.209937    0.745355    11.00000   -1.20000
AFIX   0
C19   1    1.098383    0.853425    0.980534    11.00000    0.02979    0.03085 =
         0.05175    0.00657    0.00918   -0.01327
AFIX 137
H19A  2    1.153005    0.798976    1.007873    11.00000   -1.50000
H19B  2    1.137432    0.910480    1.007873    11.00000   -1.50000
H19C  2    1.142649    0.855546    0.932388    11.00000   -1.50000
AFIX   0
C20   1    0.672352    0.907459    0.862116    11.00000    0.05523    0.02095 =
         0.02057    0.00659    0.00938   -0.00066
AFIX 137
H20A  2    0.728098    0.878601    0.821743    11.00000   -1.50000
H20B  2    0.700373    0.974486    0.863721    11.00000   -1.50000
H20C  2    0.535355    0.898195    0.854376    11.00000   -1.50000
AFIX   0
C17   1    0.105173   -0.024964    0.735299    11.00000    0.04852    0.03522 =
         0.05478    0.00765   -0.00447   -0.01695
AFIX 137
H17A  2    0.144713   -0.058679    0.693563    11.00000   -1.50000
H17B  2   -0.030442   -0.012021    0.725613    11.00000   -1.50000
H17C  2    0.131709   -0.063192    0.779686    11.00000   -1.50000
AFIX   0
O7    3    0.772352    0.442421    0.928424    11.00000    0.02199    0.00429 =
         0.02263   -0.00313    0.01524   -0.00334
C4    1    0.718483    0.530953    0.950885    11.00000    0.01614   -0.00050 =
         0.01021    0.00174    0.00205   -0.00163
HKLF 4
 
REM  IM1704 in P21/n #14
REM R1 =  0.0520 for    2891 Fo > 4sig(Fo)  and  0.0591 for all    3378 data
REM    185 parameters refined using      0 restraints
 
END  
     
WGHT      0.0865      0.0000 

REM Highest difference peak  0.753,  deepest hole -2.947,  1-sigma level  0.290
Q1    1   0.7935  0.7569  0.9165  11.00000  0.05    0.75
Q2    1   0.9206  0.7002  0.9161  11.00000  0.05    0.72
Q3    1   0.7911  0.7669  1.0107  11.00000  0.05    0.72
Q4    1   0.7513  0.6609  0.8582  11.00000  0.05    0.71
Q5    1   0.9453  0.8423  0.9829  11.00000  0.05    0.66
Q6    1   1.0243  1.0008  1.0501  11.00000  0.05    0.65
Q7    1  -0.1451  0.1810  0.6391  11.00000  0.05    0.63
Q8    1   0.4865  1.0410  0.8599  11.00000  0.05    0.62
Q9    1   0.8176  0.9189  1.0185  11.00000  0.05    0.61
Q10   1   0.8123  0.1276  0.6780  11.00000  0.05    0.61
Q11   1   1.0774  1.0169  0.9847  11.00000  0.05    0.60
Q12   1  -0.0727  0.1641  0.6026  11.00000  0.05    0.59
Q13   1   0.3812 -0.0394  0.6818  11.00000  0.05    0.58
Q14   1   0.9291  0.9633  0.9212  11.00000  0.05    0.57
Q15   1   0.5188  0.7964  1.0588  11.00000  0.05    0.56
Q16   1   0.8332  0.9476  0.9420  11.00000  0.05    0.56
Q17   1   0.5715  0.5834  1.0798  11.00000  0.05    0.56
Q18   1   1.0991  0.1881  0.8248  11.00000  0.05    0.56
Q19   1   0.5778  0.9883  0.8814  11.00000  0.05    0.56
Q20   1  -0.1348  0.1230  0.6625  11.00000  0.05    0.56

REM The information below was added by Olex2.
REM
REM R1 = 0.0520 for 2891 Fo > 4sig(Fo) and n/a for all 5965 data
REM n/a parameters refined using n/a restraints
REM Highest difference peak n/a, deepest hole n/a
REM Mean Shift n/a, Max Shift n/a.

REM +++ Tabular Listing of Refinement Information +++
REM R1_all = n/a
REM R1_gt = 0.0520
REM wR_ref = 0.1363
REM GOOF = 1.087
REM Shift_max = n/a
REM Shift_mean = n/a
REM Reflections_all = 5965
REM Reflections_gt = 2891
REM Parameters = n/a
REM Hole = n/a
REM Peak = n/a
REM Flack = n/a

