
data_IM1706

_audit_creation_method            'SHELXL-2014/7'
_shelx_SHELXL_version_number      '2014/7'
_chemical_name_systematic         ?
_chemical_name_common             ?
_chemical_melting_point           ?
_chemical_formula_moiety
 'C36 H60 Br2 O2 S2'
_chemical_formula_sum
 'C36 H60 Br2 O2 S2'
_chemical_formula_weight          748.78

loop_
 _atom_type_symbol
 _atom_type_description
 _atom_type_scat_dispersion_real
 _atom_type_scat_dispersion_imag
 _atom_type_scat_source
 'C'  'C'   0.0181   0.0091
 'International Tables Vol C Tables 4.2.6.8 and 6.1.1.4'
 'H'  'H'   0.0000   0.0000
 'International Tables Vol C Tables 4.2.6.8 and 6.1.1.4'
 'Br'  'Br'  -0.6763   1.2805
 'International Tables Vol C Tables 4.2.6.8 and 6.1.1.4'
 'O'  'O'   0.0492   0.0322
 'International Tables Vol C Tables 4.2.6.8 and 6.1.1.4'
 'S'  'S'   0.3331   0.5567
 'International Tables Vol C Tables 4.2.6.8 and 6.1.1.4'

_space_group_crystal_system       triclinic
_space_group_IT_number            2
_space_group_name_H-M_alt         'P -1'
_space_group_name_Hall            '-P 1'

_shelx_space_group_comment
;
The symmetry employed for this shelxl refinement is uniquely defined
by the following loop, which should always be used as a source of
symmetry information in preference to the above space-group names.
They are only intended as comments.
;

loop_
 _space_group_symop_operation_xyz
 'x, y, z'
 '-x, -y, -z'

_cell_length_a                    4.1652(2)
_cell_length_b                    9.2979(4)
_cell_length_c                    23.8056(13)
_cell_angle_alpha                 91.863(4)
_cell_angle_beta                  91.478(4)
_cell_angle_gamma                 96.453(4)
_cell_volume                      915.20(8)
_cell_formula_units_Z             1
_cell_measurement_temperature     173(2)
_cell_measurement_reflns_used     2439
_cell_measurement_theta_min       4.7560
_cell_measurement_theta_max       73.6760

_exptl_crystal_description        ''
_exptl_crystal_colour             Colourless
_exptl_crystal_density_meas       ?
_exptl_crystal_density_method     ?
_exptl_crystal_density_diffrn     1.359
_exptl_crystal_F_000              394
_exptl_transmission_factor_min    ?
_exptl_transmission_factor_max    ?
_exptl_crystal_size_max           0.31
_exptl_crystal_size_mid           0.04
_exptl_crystal_size_min           0.01
_exptl_absorpt_coefficient_mu     4.089
_shelx_estimated_absorpt_T_min    ?
_shelx_estimated_absorpt_T_max    ?
_exptl_absorpt_correction_type    analytical
_exptl_absorpt_correction_T_min   0.580
_exptl_absorpt_correction_T_max   0.964
_exptl_absorpt_process_details
;
CrysAlisPro 1.171.38.43 (Rigaku Oxford Diffraction, 2015)
Analytical numeric absorption correction using a multifaceted crystal
model based on expressions derived by R.C. Clark & J.S. Reid.
(Clark, R. C. & Reid, J. S. (1995). Acta Cryst. A51, 887-897)
Empirical absorption correction using spherical harmonics,
implemented in SCALE3 ABSPACK scaling algorithm.
;
_exptl_absorpt_special_details    ?
_diffrn_ambient_temperature       173(2)
_diffrn_radiation_wavelength      1.54184
_diffrn_radiation_type            CuK\a
_diffrn_source                    'Enhance Ultra (Cu) X-ray Source'
_diffrn_measurement_device_type   'Agilent Xcalibur PX Ultra A'
_diffrn_measurement_method        'omega scans'
_diffrn_detector_area_resol_mean  10.4115
_diffrn_reflns_number             5355
_diffrn_reflns_av_unetI/netI      0.0454
_diffrn_reflns_av_R_equivalents   0.0309
_diffrn_reflns_limit_h_min        -4
_diffrn_reflns_limit_h_max        5
_diffrn_reflns_limit_k_min        -11
_diffrn_reflns_limit_k_max        9
_diffrn_reflns_limit_l_min        -29
_diffrn_reflns_limit_l_max        29
_diffrn_reflns_theta_min          3.717
_diffrn_reflns_theta_max          73.865
_diffrn_reflns_theta_full         67.684
_diffrn_measured_fraction_theta_max   0.940
_diffrn_measured_fraction_theta_full  0.980
_diffrn_reflns_Laue_measured_fraction_max    0.940
_diffrn_reflns_Laue_measured_fraction_full   0.980
_diffrn_reflns_point_group_measured_fraction_max   0.940
_diffrn_reflns_point_group_measured_fraction_full  0.980
_reflns_number_total              3490
_reflns_number_gt                 3056
_reflns_threshold_expression      'I > 2\s(I)'
_reflns_Friedel_coverage          0.000
_reflns_Friedel_fraction_max      .
_reflns_Friedel_fraction_full     .

_reflns_special_details
;
 Reflections were merged by SHELXL according to the crystal
 class for the calculation of statistics and refinement.

 _reflns_Friedel_fraction is defined as the number of unique
 Friedel pairs measured divided by the number that would be
 possible theoretically, ignoring centric projections and
 systematic absences.
;

_computing_data_collection        'CrysAlisPro, Rigaku OD'
_computing_cell_refinement        'CrysAlisPro, Rigaku OD'
_computing_data_reduction         'CrysAlisPro, Rigaku OD'
_computing_structure_solution     'SHELXS-2014 (Sheldrick, 2014)'
_computing_structure_refinement 'SHELXL-2014/7 (Sheldrick, 2014)'
_computing_molecular_graphics     'Bruker SHELXTL'
_computing_publication_material   'CIFTAB-2014 (Sheldrick, 2014)'
_refine_special_details           ?
_refine_ls_structure_factor_coef  Fsqd
_refine_ls_matrix_type            full
_refine_ls_weighting_scheme       calc
_refine_ls_weighting_details
'w=1/[\s^2^(Fo^2^)+(0.0565P)^2^+0.5652P] where P=(Fo^2^+2Fc^2^)/3'
_atom_sites_solution_primary      ?
_atom_sites_solution_secondary    ?
_atom_sites_solution_hydrogens    geom
_refine_ls_hydrogen_treatment     constr
_refine_ls_extinction_method      none
_refine_ls_extinction_coef        .
_refine_ls_number_reflns          3490
_refine_ls_number_parameters      191
_refine_ls_number_restraints      0
_refine_ls_R_factor_all           0.0504
_refine_ls_R_factor_gt            0.0433
_refine_ls_wR_factor_ref          0.1141
_refine_ls_wR_factor_gt           0.1086
_refine_ls_goodness_of_fit_ref    1.066
_refine_ls_restrained_S_all       1.066
_refine_ls_shift/su_max           0.001
_refine_ls_shift/su_mean          0.000

loop_
 _atom_site_label
 _atom_site_type_symbol
 _atom_site_fract_x
 _atom_site_fract_y
 _atom_site_fract_z
 _atom_site_U_iso_or_equiv
 _atom_site_adp_type
 _atom_site_occupancy
 _atom_site_site_symmetry_order
 _atom_site_calc_flag
 _atom_site_refinement_flags_posn
 _atom_site_refinement_flags_adp
 _atom_site_refinement_flags_occupancy
 _atom_site_disorder_assembly
 _atom_site_disorder_group
S1 S 0.49541(19) 0.34680(8) 0.42677(3) 0.02746(18) Uani 1 1 d . . . . .
C2 C 0.6750(8) 0.2005(3) 0.44851(14) 0.0283(6) Uani 1 1 d . . . . .
Br2 Br 0.73681(9) 0.04923(4) 0.39748(2) 0.03567(14) Uani 1 1 d . . . . .
C3 C 0.7767(8) 0.2106(3) 0.50336(13) 0.0281(6) Uani 1 1 d . . . . .
H3A H 0.8795 0.1387 0.5221 0.034 Uiso 1 1 calc R U . . .
C4 C 0.7075(7) 0.3438(3) 0.52877(13) 0.0258(6) Uani 1 1 d . . . . .
C5 C 0.5525(7) 0.4300(3) 0.49334(13) 0.0255(6) Uani 1 1 d . . . . .
O6 O 0.7745(6) 0.3896(3) 0.58327(10) 0.0331(5) Uani 1 1 d . . . . .
C7 C 0.9504(8) 0.2982(4) 0.61671(13) 0.0294(7) Uani 1 1 d . . . . .
H7A H 1.1535 0.2807 0.5983 0.035 Uiso 1 1 calc R U . . .
H7B H 0.8198 0.2037 0.6210 0.035 Uiso 1 1 calc R U . . .
C8 C 1.0253(8) 0.3729(4) 0.67363(13) 0.0291(6) Uani 1 1 d . . . . .
H8A H 0.8271 0.4090 0.6880 0.035 Uiso 1 1 calc R U . . .
H8B H 1.1894 0.4574 0.6697 0.035 Uiso 1 1 calc R U . . .
C9 C 1.1516(8) 0.2706(4) 0.71585(14) 0.0314(7) Uani 1 1 d . . . . .
H9A H 0.9811 0.1898 0.7216 0.038 Uiso 1 1 calc R U . . .
H9B H 1.3398 0.2290 0.7000 0.038 Uiso 1 1 calc R U . . .
C10 C 1.2517(8) 0.3458(4) 0.77246(14) 0.0316(7) Uani 1 1 d . . . . .
H10A H 1.4325 0.4221 0.7668 0.038 Uiso 1 1 calc R U . . .
H10B H 1.0679 0.3937 0.7867 0.038 Uiso 1 1 calc R U . . .
C11 C 1.3559(9) 0.2445(4) 0.81674(14) 0.0328(7) Uani 1 1 d . . . . .
H11A H 1.5345 0.1938 0.8020 0.039 Uiso 1 1 calc R U . . .
H11B H 1.1725 0.1704 0.8236 0.039 Uiso 1 1 calc R U . . .
C12 C 1.4672(9) 0.3223(4) 0.87239(14) 0.0333(7) Uani 1 1 d . . . . .
H12A H 1.6570 0.3932 0.8657 0.040 Uiso 1 1 calc R U . . .
H12B H 1.2923 0.3770 0.8861 0.040 Uiso 1 1 calc R U . . .
C13 C 1.5575(9) 0.2216(4) 0.91803(14) 0.0346(7) Uani 1 1 d . . . . .
H13A H 1.3665 0.1520 0.9253 0.042 Uiso 1 1 calc R U . . .
H13B H 1.7294 0.1655 0.9041 0.042 Uiso 1 1 calc R U . . .
C14 C 1.6744(9) 0.3001(4) 0.97296(14) 0.0353(7) Uani 1 1 d . . . . .
H14A H 1.8700 0.3671 0.9659 0.042 Uiso 1 1 calc R U . . .
H14B H 1.5056 0.3591 0.9861 0.042 Uiso 1 1 calc R U . . .
C15 C 1.7534(9) 0.2002(4) 1.01928(14) 0.0354(7) Uani 1 1 d . . . . .
H15A H 1.9190 0.1398 1.0058 0.043 Uiso 1 1 calc R U . . .
H15B H 1.5566 0.1344 1.0268 0.043 Uiso 1 1 calc R U . . .
C16 C 1.8767(9) 0.2783(4) 1.07421(14) 0.0354(7) Uani 1 1 d . . . . .
H16A H 2.0768 0.3421 1.0669 0.042 Uiso 1 1 calc R U . . .
H16B H 1.7136 0.3406 1.0871 0.042 Uiso 1 1 calc R U . . .
C17 C 1.9475(9) 0.1780(4) 1.12102(14) 0.0351(7) Uani 1 1 d . . . . .
H17A H 1.7467 0.1151 1.1287 0.042 Uiso 1 1 calc R U . . .
H17B H 2.1085 0.1147 1.1079 0.042 Uiso 1 1 calc R U . . .
C18 C 2.0745(9) 0.2563(4) 1.17543(15) 0.0371(8) Uani 1 1 d . . . . .
H18A H 2.2776 0.3178 1.1679 0.045 Uiso 1 1 calc R U . . .
H18B H 1.9155 0.3210 1.1882 0.045 Uiso 1 1 calc R U . . .
C19 C 2.1392(10) 0.1563(4) 1.22235(15) 0.0390(8) Uani 1 1 d . . . . .
H19A H 2.2968 0.0910 1.2096 0.047 Uiso 1 1 calc R U . . .
H19B H 1.9358 0.0955 1.2303 0.047 Uiso 1 1 calc R U . . .
C20 C 2.2699(11) 0.2363(5) 1.27650(17) 0.0483(10) Uani 1 1 d . . . . .
H20A H 2.4755 0.2940 1.2694 0.072 Uiso 1 1 calc R U . . .
H20B H 2.3043 0.1660 1.3052 0.072 Uiso 1 1 calc R U . . .
H20C H 2.1140 0.3003 1.2897 0.072 Uiso 1 1 calc R U . . .

loop_
 _atom_site_aniso_label
 _atom_site_aniso_U_11
 _atom_site_aniso_U_22
 _atom_site_aniso_U_33
 _atom_site_aniso_U_23
 _atom_site_aniso_U_13
 _atom_site_aniso_U_12
S1 0.0343(4) 0.0240(4) 0.0245(4) 0.0014(3) -0.0035(3) 0.0058(3)
C2 0.0296(16) 0.0262(15) 0.0294(15) 0.0017(12) 0.0002(12) 0.0046(12)
Br2 0.0454(2) 0.0286(2) 0.0340(2) -0.00328(13) -0.00221(14) 0.01063(14)
C3 0.0329(16) 0.0250(15) 0.0272(15) 0.0034(12) -0.0025(12) 0.0071(12)
C4 0.0269(15) 0.0256(15) 0.0253(14) 0.0016(12) -0.0023(12) 0.0052(12)
C5 0.0279(15) 0.0260(15) 0.0229(14) 0.0024(11) -0.0031(11) 0.0041(12)
O6 0.0442(13) 0.0307(12) 0.0260(11) 0.0006(9) -0.0087(10) 0.0139(10)
C7 0.0305(16) 0.0289(16) 0.0296(16) 0.0019(13) -0.0039(13) 0.0074(13)
C8 0.0335(16) 0.0286(16) 0.0260(15) 0.0035(12) -0.0029(12) 0.0070(13)
C9 0.0375(17) 0.0302(16) 0.0269(16) 0.0026(13) -0.0053(13) 0.0071(14)
C10 0.0373(17) 0.0312(17) 0.0264(16) 0.0019(13) -0.0023(13) 0.0053(14)
C11 0.0407(19) 0.0315(17) 0.0266(16) -0.0001(13) -0.0053(13) 0.0080(14)
C12 0.0420(18) 0.0334(17) 0.0248(15) 0.0019(13) -0.0034(13) 0.0056(14)
C13 0.0426(19) 0.0333(17) 0.0282(16) 0.0039(13) -0.0069(14) 0.0065(14)
C14 0.0431(19) 0.0332(17) 0.0294(16) 0.0018(13) -0.0043(14) 0.0042(14)
C15 0.0428(19) 0.0356(18) 0.0279(16) 0.0009(14) -0.0058(14) 0.0059(15)
C16 0.0442(19) 0.0345(18) 0.0275(16) 0.0012(13) -0.0057(14) 0.0061(15)
C17 0.0437(19) 0.0328(17) 0.0286(16) 0.0023(13) -0.0073(14) 0.0045(15)
C18 0.045(2) 0.0350(18) 0.0308(17) 0.0027(14) -0.0077(15) 0.0053(15)
C19 0.044(2) 0.0380(19) 0.0347(18) 0.0045(15) -0.0087(15) 0.0062(16)
C20 0.058(2) 0.054(2) 0.0327(19) 0.0034(17) -0.0099(17) 0.0045(19)

_geom_special_details
;
 All esds (except the esd in the dihedral angle between two l.s. planes)
 are estimated using the full covariance matrix.  The cell esds are taken
 into account individually in the estimation of esds in distances, angles
 and torsion angles; correlations between esds in cell parameters are only
 used when they are defined by crystal symmetry.  An approximate (isotropic)
 treatment of cell esds is used for estimating esds involving l.s. planes.
;

loop_
 _geom_bond_atom_site_label_1
 _geom_bond_atom_site_label_2
 _geom_bond_distance
 _geom_bond_site_symmetry_2
 _geom_bond_publ_flag
S1 C2 1.712(3) . ?
S1 C5 1.740(3) . ?
C2 C3 1.359(5) . ?
C2 Br2 1.873(3) . ?
C3 C4 1.422(4) . ?
C4 O6 1.364(4) . ?
C4 C5 1.380(4) . ?
C5 C5 1.447(6) 2_666 ?
O6 C7 1.431(4) . ?
C7 C8 1.512(4) . ?
C8 C9 1.529(4) . ?
C9 C10 1.524(4) . ?
C10 C11 1.523(4) . ?
C11 C12 1.524(4) . ?
C12 C13 1.524(4) . ?
C13 C14 1.518(5) . ?
C14 C15 1.518(5) . ?
C15 C16 1.523(5) . ?
C16 C17 1.520(5) . ?
C17 C18 1.518(5) . ?
C18 C19 1.514(5) . ?
C19 C20 1.524(5) . ?

loop_
 _geom_angle_atom_site_label_1
 _geom_angle_atom_site_label_2
 _geom_angle_atom_site_label_3
 _geom_angle
 _geom_angle_site_symmetry_1
 _geom_angle_site_symmetry_3
 _geom_angle_publ_flag
C2 S1 C5 91.15(15) . . ?
C3 C2 S1 114.0(2) . . ?
C3 C2 Br2 125.4(3) . . ?
S1 C2 Br2 120.44(18) . . ?
C2 C3 C4 110.5(3) . . ?
O6 C4 C5 119.3(3) . . ?
O6 C4 C3 126.4(3) . . ?
C5 C4 C3 114.3(3) . . ?
C4 C5 C5 127.5(4) . 2_666 ?
C4 C5 S1 110.1(2) . . ?
C5 C5 S1 122.4(3) 2_666 . ?
C4 O6 C7 116.2(2) . . ?
O6 C7 C8 108.2(3) . . ?
C7 C8 C9 111.6(3) . . ?
C10 C9 C8 112.8(3) . . ?
C11 C10 C9 114.0(3) . . ?
C10 C11 C12 113.3(3) . . ?
C13 C12 C11 114.0(3) . . ?
C14 C13 C12 113.7(3) . . ?
C15 C14 C13 114.0(3) . . ?
C14 C15 C16 114.3(3) . . ?
C17 C16 C15 114.2(3) . . ?
C18 C17 C16 114.0(3) . . ?
C19 C18 C17 114.0(3) . . ?
C18 C19 C20 113.4(3) . . ?

_refine_diff_density_max    1.026
_refine_diff_density_min   -0.562
_refine_diff_density_rms    0.090



#===END
